submitit INFO (2023-05-02 18:51:28,221) - Starting with JobEnvironment(job_id=27745, hostname=cpunode2, local_rank=2(5), node=0(1), global_rank=2(5))
submitit INFO (2023-05-02 18:51:28,221) - Loading pickle: /h/30/pashootan/Matrix-Mult-CP/src/../logs/4/2x2x2_7_May02_18:51:25/27745_submitted.pkl
 ! --------------------------------------------------- CP Optimizer 22.1.1.0 --
 ! Satisfiability problem - 84 variables, 64 constraints
 ! TimeLimit            = 7200
 ! Workers              = 8
 ! LogPeriod            = 10000000
 ! RandomSeed           = 8693
 ! Initial process time : 0.01s (0.01s extraction + 0.00s propagation)
 !  . Log search space  : 133.1 (before), 133.1 (after)
 !  . Memory usage      : 495.8 kB (before), 495.8 kB (after)
 ! Using parallel search with 8 workers.
 ! ----------------------------------------------------------------------------
 !               Branches  Non-fixed    W       Branch decision
 *                  73778  0.60s        6         1  = V3_0
 ! ----------------------------------------------------------------------------
 ! Search completed, 1 solution found.
 ! ----------------------------------------------------------------------------
 ! Number of branches     : 589595
 ! Number of fails        : 273737
 ! Total memory usage     : 9.3 MB (9.3 MB CP Optimizer + 0.0 MB Concert)
 ! Time spent in solve    : 0.61s (0.61s engine + 0.01s extraction)
 ! Search speed (br. / s) : 982658.3
 ! ----------------------------------------------------------------------------
Feasible
Model is valid
Saving solution to: /h/30/pashootan/Matrix-Mult-CP/logs/4/2x2x2_7_May02_18:51:25/27745_2_solution.txt
Saving stats to: /h/30/pashootan/Matrix-Mult-CP/logs/4/2x2x2_7_May02_18:51:25/27745_2_stats.csv
submitit INFO (2023-05-02 18:51:29,267) - Job completed successfully
